
Gurobi 10.0.0 (linux64) logging started Sat Nov 26 23:06:59 2022

Set parameter LogFile to value "../results/k03_n050_d005/k03_n077_d008_jean_RP-MILO_log.txt"
Set parameter LazyConstraints to value 1
Gurobi Optimizer version 10.0.0 build v10.0.0rc2 (linux64)

CPU model: Intel(R) Xeon(R) CPU E5-2630 v4 @ 2.20GHz, instruction set [SSE2|AVX|AVX2]
Thread count: 20 physical cores, 40 logical processors, using up to 10 threads

Optimize a model with 3297 rows, 283 columns and 9891 nonzeros
Model fingerprint: 0x409274a1
Coefficient statistics:
  Matrix range     [1e+00, 1e+00]
  Objective range  [1e+00, 1e+00]
  Bounds range     [1e+00, 1e+00]
  RHS range        [1e+00, 1e+00]
Presolve time: 0.00s
Presolved: 1986 rows, 283 columns, 5958 nonzeros

Iteration    Objective       Primal Inf.    Dual Inf.      Time
       0    2.5400000e+02   0.000000e+00   0.000000e+00      0s
       0    2.5400000e+02   0.000000e+00   0.000000e+00      0s

Solved in 0 iterations and 0.00 seconds (0.00 work units)
Optimal objective  2.540000000e+02

Gurobi 10.0.0 (linux64) logging started Sat Nov 26 23:11:04 2022

Set parameter LogFile to value "../results/k03_n050_d005/k03_n077_d008_jean_RP-MILO_log.txt"
Set parameter LazyConstraints to value 1
Gurobi Optimizer version 10.0.0 build v10.0.0rc2 (linux64)

CPU model: Intel(R) Xeon(R) CPU E5-2630 v4 @ 2.20GHz, instruction set [SSE2|AVX|AVX2]
Thread count: 20 physical cores, 40 logical processors, using up to 10 threads

Optimize a model with 3297 rows, 283 columns and 9891 nonzeros
Model fingerprint: 0x409274a1
Coefficient statistics:
  Matrix range     [1e+00, 1e+00]
  Objective range  [1e+00, 1e+00]
  Bounds range     [1e+00, 1e+00]
  RHS range        [1e+00, 1e+00]
Presolve time: 0.00s
Presolved: 1986 rows, 283 columns, 5958 nonzeros

Iteration    Objective       Primal Inf.    Dual Inf.      Time
       0    2.5400000e+02   0.000000e+00   0.000000e+00      0s
       0    2.5400000e+02   0.000000e+00   0.000000e+00      0s

Solved in 0 iterations and 0.00 seconds (0.00 work units)
Optimal objective  2.540000000e+02
Set parameter TimeLimit to value 3.5997403683662415e+03
Gurobi Optimizer version 10.0.0 build v10.0.0rc2 (linux64)

CPU model: Intel(R) Xeon(R) CPU E5-2630 v4 @ 2.20GHz, instruction set [SSE2|AVX|AVX2]
Thread count: 20 physical cores, 40 logical processors, using up to 10 threads

Optimize a model with 5065 rows, 283 columns and 20499 nonzeros
Coefficient statistics:
  Matrix range     [1e+00, 1e+00]
  Objective range  [1e+00, 1e+00]
  Bounds range     [1e+00, 1e+00]
  RHS range        [1e+00, 1e+00]
Iteration    Objective       Primal Inf.    Dual Inf.      Time
       0    2.5400000e+02   1.768000e+03   0.000000e+00      0s
     570    2.2212208e+02   0.000000e+00   0.000000e+00      0s

Solved in 570 iterations and 0.07 seconds (0.12 work units)
Optimal objective  2.221220756e+02
